(declare-fun temp157_1 () (_ BitVec 64))
(declare-fun var65735 () (_ BitVec 64))
(declare-fun temp157_2 () (_ BitVec 64))
(declare-fun temp157_3 () (_ BitVec 64))
(declare-fun temp157_4 () (_ BitVec 64))
(declare-fun ARGNAME_coefficients_NAMEEND_DIMSIZE
             ()
             (Array (_ BitVec 64) (_ BitVec 64)))
(declare-fun temp157_5 () (_ BitVec 64))
(declare-fun temp157_6 () (_ BitVec 64))
(declare-fun temp157_7 () (_ BitVec 64))
(declare-fun temp157_8 () (_ BitVec 64))
(declare-fun temp157_9 () (_ BitVec 64))
(declare-fun temp157_10 () (_ BitVec 64))
(declare-fun temp157_11 () (_ BitVec 64))
(declare-fun temp157_12 () (_ BitVec 64))
(declare-fun temp157_13 () (_ BitVec 64))
(declare-fun temp157_14 () (_ BitVec 64))
(declare-fun temp157_15 () (_ BitVec 64))
(declare-fun temp157_16 () (_ BitVec 64))
(declare-fun temp157_17 () (_ BitVec 64))
(declare-fun temp157_18 () (_ BitVec 64))
(declare-fun temp157_19 () (_ BitVec 64))
(declare-fun temp157_20 () (_ BitVec 64))
(declare-fun temp157_21 () (_ BitVec 64))
(declare-fun temp157_22 () (_ BitVec 64))
(declare-fun var66175 () (_ BitVec 64))
(declare-fun var1114902 () (_ BitVec 64))
(declare-fun temp157_24 () (_ BitVec 64))
(declare-fun temp157_23 () (_ BitVec 64))
(declare-fun temp157_25 () (_ BitVec 64))
(declare-fun var2097351 () (_ BitVec 64))
(declare-fun temp157_26 () (_ BitVec 64))
(declare-fun temp157_27 () (_ BitVec 64))
(declare-fun temp157_28 () (_ BitVec 64))
(declare-fun var2098167 () (_ BitVec 64))
(declare-fun temp157_29 () (_ BitVec 64))
(declare-fun var2097834 () (_ BitVec 64))
(declare-fun temp157_30 () (_ BitVec 64))
(declare-fun temp157_31 () (_ BitVec 64))
(declare-fun temp157_32 () (_ BitVec 64))
(declare-fun var2098170 () (_ BitVec 64))
(declare-fun var2164181 () (_ BitVec 64))
(declare-fun temp157_33 () (_ BitVec 64))
(declare-fun var2951030 () (_ BitVec 64))
(declare-fun var3605270 () (_ BitVec 64))
(declare-fun var3670806 () (_ BitVec 64))
(declare-fun var4654549 () (_ BitVec 64))
(declare-fun temp157_34 () (_ BitVec 64))
(declare-fun var5441398 () (_ BitVec 64))
(declare-fun var6095638 () (_ BitVec 64))
(declare-fun var6161174 () (_ BitVec 64))
(declare-fun temp157_35 () (_ BitVec 64))
(declare-fun var6817292 () (_ BitVec 64))
(declare-fun temp157_36 () (_ BitVec 64))
(declare-fun ARGNAME_coefficients_NAMEEND_DIM () (_ BitVec 64))
(declare-fun var7275286 () (_ BitVec 64))
(declare-fun var7340822 () (_ BitVec 64))
(declare-fun var7602966 () (_ BitVec 64))
(declare-fun var7668502 () (_ BitVec 64))
(assert (= temp157_1 #x0000000000000000))
(assert (= var65735 temp157_1))
(assert (= temp157_2 #x0000000000000000))
(assert (= temp157_3 temp157_2))
(assert (= temp157_4 (select ARGNAME_coefficients_NAMEEND_DIMSIZE temp157_3)))
(assert (= temp157_5 #x0000000000000001))
(assert (= temp157_6 temp157_5))
(assert (= temp157_7 (select ARGNAME_coefficients_NAMEEND_DIMSIZE temp157_6)))
(assert (= temp157_8 #x0000000000000002))
(assert (= temp157_9 temp157_8))
(assert (= temp157_10 (select ARGNAME_coefficients_NAMEEND_DIMSIZE temp157_9)))
(assert (= temp157_11 #x0000000000000003))
(assert (= temp157_12 temp157_11))
(assert (= temp157_13 (select ARGNAME_coefficients_NAMEEND_DIMSIZE temp157_12)))
(assert (= temp157_14 #x0000000000000004))
(assert (= temp157_15 temp157_14))
(assert (= temp157_16 (select ARGNAME_coefficients_NAMEEND_DIMSIZE temp157_15)))
(assert (= temp157_17 #x0000000000000005))
(assert (= temp157_18 temp157_17))
(assert (= temp157_19 (select ARGNAME_coefficients_NAMEEND_DIMSIZE temp157_18)))
(assert (= temp157_20 #x0000000000000000))
(assert (= temp157_21
   (ite (bvslt var65735 temp157_20)
        (bvadd ARGNAME_coefficients_NAMEEND_DIM var65735)
        var65735)))
(assert (= temp157_22 (select ARGNAME_coefficients_NAMEEND_DIMSIZE temp157_21)))
(assert (= var66175 temp157_22))
(assert (bvslt (ite (bvslt var65735 temp157_20)
            (bvadd ARGNAME_coefficients_NAMEEND_DIM var65735)
            var65735)
       ARGNAME_coefficients_NAMEEND_DIM))
(assert (= var1114902 var65735))
(assert (= temp157_24 #x0000000000000000))
(assert (= temp157_23 temp157_24))
(assert (= temp157_25 #x0000000000000000))
(assert (= var2097351 temp157_25))
(assert (= temp157_26 #x0000000000000000))
(assert (= temp157_27
   (ite (bvslt var2097351 temp157_26)
        (bvadd ARGNAME_coefficients_NAMEEND_DIM var2097351)
        var2097351)))
(assert (= temp157_28 (select ARGNAME_coefficients_NAMEEND_DIMSIZE temp157_27)))
(assert (= var2098167 temp157_28))
(assert (bvslt (ite (bvslt var2097351 temp157_26)
            (bvadd ARGNAME_coefficients_NAMEEND_DIM var2097351)
            var2097351)
       ARGNAME_coefficients_NAMEEND_DIM))
(assert (= temp157_29 #x0000000000000001))
(assert (= var2097834 temp157_29))
(assert (= temp157_30 #x0000000000000000))
(assert (= temp157_31
   (ite (bvslt var2097834 temp157_30)
        (bvadd ARGNAME_coefficients_NAMEEND_DIM var2097834)
        var2097834)))
(assert (= temp157_32 (select ARGNAME_coefficients_NAMEEND_DIMSIZE temp157_31)))
(assert (= var2098170 temp157_32))
(assert (bvslt (ite (bvslt var2097834 temp157_30)
            (bvadd ARGNAME_coefficients_NAMEEND_DIM var2097834)
            var2097834)
       ARGNAME_coefficients_NAMEEND_DIM))
(assert (= var2164181 var2097834))
(assert (= temp157_33 #x0000000000000001))
(assert (= var2951030 temp157_33))
(assert (= var3605270 var2097834))
(assert (= var3670806 var2097834))
(assert (= var4654549 var2097351))
(assert (= temp157_34 #x0000000000000001))
(assert (= var5441398 temp157_34))
(assert (= var6095638 var2097834))
(assert (= var6161174 var2097834))
(assert (= temp157_35 #x0000000000000000))
(assert (= var6817292 temp157_35))
(assert (= temp157_36 #x0000000000000000))
(assert (= var6817292 temp157_36))
(assert (= var7275286 var2097351))
(assert (= var7340822 var2097834))
(assert (= var7602966 var2097351))
(assert (= var7668502 var2097834))
(model-add temp157_1 () (_ BitVec 64) #x0000000000000000)
(model-add var65735 () (_ BitVec 64) #x0000000000000000)
(model-add temp157_2 () (_ BitVec 64) #x0000000000000000)
(model-add temp157_3 () (_ BitVec 64) #x0000000000000000)
(model-add temp157_4
           ()
           (_ BitVec 64)
           (select ARGNAME_coefficients_NAMEEND_DIMSIZE #x0000000000000000))
(model-add temp157_5 () (_ BitVec 64) #x0000000000000001)
(model-add temp157_6 () (_ BitVec 64) #x0000000000000001)
(model-add temp157_7
           ()
           (_ BitVec 64)
           (select ARGNAME_coefficients_NAMEEND_DIMSIZE #x0000000000000001))
(model-add temp157_8 () (_ BitVec 64) #x0000000000000002)
(model-add temp157_9 () (_ BitVec 64) #x0000000000000002)
(model-add temp157_10
           ()
           (_ BitVec 64)
           (select ARGNAME_coefficients_NAMEEND_DIMSIZE #x0000000000000002))
(model-add temp157_11 () (_ BitVec 64) #x0000000000000003)
(model-add temp157_12 () (_ BitVec 64) #x0000000000000003)
(model-add temp157_13
           ()
           (_ BitVec 64)
           (select ARGNAME_coefficients_NAMEEND_DIMSIZE #x0000000000000003))
(model-add temp157_14 () (_ BitVec 64) #x0000000000000004)
(model-add temp157_15 () (_ BitVec 64) #x0000000000000004)
(model-add temp157_16
           ()
           (_ BitVec 64)
           (select ARGNAME_coefficients_NAMEEND_DIMSIZE #x0000000000000004))
(model-add temp157_17 () (_ BitVec 64) #x0000000000000005)
(model-add temp157_18 () (_ BitVec 64) #x0000000000000005)
(model-add temp157_19
           ()
           (_ BitVec 64)
           (select ARGNAME_coefficients_NAMEEND_DIMSIZE #x0000000000000005))
(model-add temp157_20 () (_ BitVec 64) #x0000000000000000)
(model-add temp157_21 () (_ BitVec 64) #x0000000000000000)
(model-add temp157_22
           ()
           (_ BitVec 64)
           (select ARGNAME_coefficients_NAMEEND_DIMSIZE #x0000000000000000))
(model-add var66175
           ()
           (_ BitVec 64)
           (select ARGNAME_coefficients_NAMEEND_DIMSIZE #x0000000000000000))
(model-add var1114902 () (_ BitVec 64) #x0000000000000000)
(model-add temp157_24 () (_ BitVec 64) #x0000000000000000)
(model-add temp157_23 () (_ BitVec 64) #x0000000000000000)
(model-add temp157_25 () (_ BitVec 64) #x0000000000000000)
(model-add var2097351 () (_ BitVec 64) #x0000000000000000)
(model-add temp157_26 () (_ BitVec 64) #x0000000000000000)
(model-add temp157_27 () (_ BitVec 64) #x0000000000000000)
(model-add temp157_28
           ()
           (_ BitVec 64)
           (select ARGNAME_coefficients_NAMEEND_DIMSIZE #x0000000000000000))
(model-add var2098167
           ()
           (_ BitVec 64)
           (select ARGNAME_coefficients_NAMEEND_DIMSIZE #x0000000000000000))
(model-add temp157_29 () (_ BitVec 64) #x0000000000000001)
(model-add var2097834 () (_ BitVec 64) #x0000000000000001)
(model-add temp157_30 () (_ BitVec 64) #x0000000000000000)
(model-add temp157_31 () (_ BitVec 64) #x0000000000000001)
(model-add temp157_32
           ()
           (_ BitVec 64)
           (select ARGNAME_coefficients_NAMEEND_DIMSIZE #x0000000000000001))
(model-add var2098170
           ()
           (_ BitVec 64)
           (select ARGNAME_coefficients_NAMEEND_DIMSIZE #x0000000000000001))
(model-add var2164181 () (_ BitVec 64) #x0000000000000001)
(model-add temp157_33 () (_ BitVec 64) #x0000000000000001)
(model-add var2951030 () (_ BitVec 64) #x0000000000000001)
(model-add var3605270 () (_ BitVec 64) #x0000000000000001)
(model-add var3670806 () (_ BitVec 64) #x0000000000000001)
(model-add var4654549 () (_ BitVec 64) #x0000000000000000)
(model-add temp157_34 () (_ BitVec 64) #x0000000000000001)
(model-add var5441398 () (_ BitVec 64) #x0000000000000001)
(model-add var6095638 () (_ BitVec 64) #x0000000000000001)
(model-add var6161174 () (_ BitVec 64) #x0000000000000001)
(model-add temp157_35 () (_ BitVec 64) #x0000000000000000)
(model-add var6817292 () (_ BitVec 64) #x0000000000000000)
(model-add temp157_36 () (_ BitVec 64) #x0000000000000000)






